predicate int_eq_imp(var int: a,var int: b,var bool: r);
predicate minicpp_all_different(array [int] of var int: x);
predicate int_le_imp(var int: a,var int: b,var bool: r);
array [1..8] of int: X_INTRODUCED_30_ = [1,-1,-1,-1,-1,-1,-1,-1];
array [1..196] of int: X_INTRODUCED_34_ = [0,59,73,55,33,53,64,80,81,36,60,57,15,88,59,0,19,9,43,22,5,22,52,47,82,52,53,35,73,19,0,19,49,23,16,12,39,52,82,49,70,16,55,9,19,0,35,14,12,26,46,39,73,44,50,35,33,43,49,35,0,26,47,59,48,6,42,25,39,61,53,22,23,14,26,0,25,33,34,29,61,30,53,36,64,5,16,12,47,25,0,17,52,51,85,55,58,31,80,22,12,26,59,33,17,0,49,62,93,60,75,17,81,52,39,46,48,34,52,49,0,46,58,28,84,37,36,47,52,39,6,29,51,62,46,0,36,21,44,63,60,82,82,73,42,61,85,93,58,36,0,33,73,89,57,52,49,44,25,30,55,60,28,21,33,0,64,55,15,53,70,50,39,53,58,75,84,44,73,64,0,85,88,35,16,35,61,36,31,17,37,63,89,55,85,0];
var 1..12: Depot:: output_var;
var {1,2,3,4,5,6,8,9,10,11,12}: X_INTRODUCED_1_;
var {2,3,4,5,6,8,9,10,11,12}: X_INTRODUCED_2_;
var {2,3,4,5,6,8,9,10,11,12}: X_INTRODUCED_3_;
var {2,3,4,5,6,8,9,10,11,12}: X_INTRODUCED_4_;
var {2,3,4,5,6,8,9,10,11,12}: X_INTRODUCED_5_;
var {2,3,4,5,6,8,9,10,11,12}: X_INTRODUCED_6_;
var 2..12: X_INTRODUCED_8_;
var {2,3,4,5,6,8,9,10,11,12}: X_INTRODUCED_9_;
var {2,3,4,5,6,8,9,10,11,12}: X_INTRODUCED_10_;
var {2,3,4,5,6,8,9,10,11,12}: X_INTRODUCED_11_;
var {2,3,4,5,6,8,9,10,11,12}: X_INTRODUCED_12_;
var 2..12: X_INTRODUCED_13_;
var 0..651: ADist:: output_var:: is_defined_var;
var 0..651: BDist:: output_var:: is_defined_var;
var 0..651: objective:: is_defined_var:: output_var;
var 0..93: X_INTRODUCED_33_ ::var_is_introduced :: is_defined_var;
var 0..93: X_INTRODUCED_37_ ::var_is_introduced :: is_defined_var;
var 1..166: X_INTRODUCED_38_ ::var_is_introduced :: is_defined_var;
var 0..93: X_INTRODUCED_39_ ::var_is_introduced :: is_defined_var;
var 1..166: X_INTRODUCED_40_ ::var_is_introduced :: is_defined_var;
var 0..93: X_INTRODUCED_41_ ::var_is_introduced :: is_defined_var;
var 1..166: X_INTRODUCED_42_ ::var_is_introduced :: is_defined_var;
var 0..93: X_INTRODUCED_43_ ::var_is_introduced :: is_defined_var;
var 1..166: X_INTRODUCED_44_ ::var_is_introduced :: is_defined_var;
var 0..93: X_INTRODUCED_45_ ::var_is_introduced :: is_defined_var;
var 1..166: X_INTRODUCED_46_ ::var_is_introduced :: is_defined_var;
var 0..93: X_INTRODUCED_47_ ::var_is_introduced :: is_defined_var;
var 1..166: X_INTRODUCED_48_ ::var_is_introduced :: is_defined_var;
var 0..93: X_INTRODUCED_49_ ::var_is_introduced :: is_defined_var;
var 1..166: X_INTRODUCED_50_ ::var_is_introduced :: is_defined_var;
var 0..93: X_INTRODUCED_51_ ::var_is_introduced :: is_defined_var;
var 1..166: X_INTRODUCED_52_ ::var_is_introduced :: is_defined_var;
var 0..93: X_INTRODUCED_53_ ::var_is_introduced :: is_defined_var;
var 1..166: X_INTRODUCED_54_ ::var_is_introduced :: is_defined_var;
var 0..93: X_INTRODUCED_55_ ::var_is_introduced :: is_defined_var;
var 1..166: X_INTRODUCED_56_ ::var_is_introduced :: is_defined_var;
var 0..93: X_INTRODUCED_57_ ::var_is_introduced :: is_defined_var;
var 1..166: X_INTRODUCED_58_ ::var_is_introduced :: is_defined_var;
var 0..93: X_INTRODUCED_59_ ::var_is_introduced :: is_defined_var;
var 1..166: X_INTRODUCED_60_ ::var_is_introduced :: is_defined_var;
var 0..93: X_INTRODUCED_61_ ::var_is_introduced :: is_defined_var;
var 1..166: X_INTRODUCED_62_ ::var_is_introduced :: is_defined_var;
var bool: X_INTRODUCED_80_ ::var_is_introduced :: is_defined_var;
var bool: X_INTRODUCED_81_ ::var_is_introduced :: is_defined_var;
var bool: X_INTRODUCED_82_ ::var_is_introduced :: is_defined_var;
var bool: X_INTRODUCED_83_ ::var_is_introduced :: is_defined_var;
var bool: X_INTRODUCED_84_ ::var_is_introduced :: is_defined_var;
var bool: X_INTRODUCED_85_ ::var_is_introduced :: is_defined_var;
var bool: X_INTRODUCED_87_ ::var_is_introduced :: is_defined_var;
var bool: X_INTRODUCED_88_ ::var_is_introduced :: is_defined_var;
var bool: X_INTRODUCED_89_ ::var_is_introduced :: is_defined_var;
var bool: X_INTRODUCED_90_ ::var_is_introduced :: is_defined_var;
var bool: X_INTRODUCED_91_ ::var_is_introduced :: is_defined_var;
var bool: X_INTRODUCED_92_ ::var_is_introduced :: is_defined_var;
var bool: X_INTRODUCED_95_ ::var_is_introduced :: is_defined_var;
var bool: X_INTRODUCED_96_ ::var_is_introduced :: is_defined_var;
var bool: X_INTRODUCED_97_ ::var_is_introduced :: is_defined_var;
var bool: X_INTRODUCED_98_ ::var_is_introduced :: is_defined_var;
var bool: X_INTRODUCED_99_ ::var_is_introduced :: is_defined_var;
var bool: X_INTRODUCED_100_ ::var_is_introduced :: is_defined_var;
var bool: X_INTRODUCED_102_ ::var_is_introduced :: is_defined_var;
var bool: X_INTRODUCED_103_ ::var_is_introduced :: is_defined_var;
var bool: X_INTRODUCED_104_ ::var_is_introduced :: is_defined_var;
var bool: X_INTRODUCED_105_ ::var_is_introduced :: is_defined_var;
var bool: X_INTRODUCED_106_ ::var_is_introduced :: is_defined_var;
var bool: X_INTRODUCED_107_ ::var_is_introduced :: is_defined_var;
var bool: X_INTRODUCED_110_ ::var_is_introduced :: is_defined_var;
var bool: X_INTRODUCED_111_ ::var_is_introduced :: is_defined_var;
var bool: X_INTRODUCED_112_ ::var_is_introduced :: is_defined_var;
var bool: X_INTRODUCED_113_ ::var_is_introduced :: is_defined_var;
var bool: X_INTRODUCED_114_ ::var_is_introduced :: is_defined_var;
var bool: X_INTRODUCED_115_ ::var_is_introduced :: is_defined_var;
var bool: X_INTRODUCED_117_ ::var_is_introduced :: is_defined_var;
var bool: X_INTRODUCED_118_ ::var_is_introduced :: is_defined_var;
var bool: X_INTRODUCED_119_ ::var_is_introduced :: is_defined_var;
var bool: X_INTRODUCED_120_ ::var_is_introduced :: is_defined_var;
var bool: X_INTRODUCED_121_ ::var_is_introduced :: is_defined_var;
var bool: X_INTRODUCED_122_ ::var_is_introduced :: is_defined_var;
var bool: X_INTRODUCED_125_ ::var_is_introduced :: is_defined_var;
var bool: X_INTRODUCED_126_ ::var_is_introduced :: is_defined_var;
var bool: X_INTRODUCED_127_ ::var_is_introduced :: is_defined_var;
var bool: X_INTRODUCED_128_ ::var_is_introduced :: is_defined_var;
var bool: X_INTRODUCED_129_ ::var_is_introduced :: is_defined_var;
var bool: X_INTRODUCED_130_ ::var_is_introduced :: is_defined_var;
var bool: X_INTRODUCED_132_ ::var_is_introduced :: is_defined_var;
var bool: X_INTRODUCED_133_ ::var_is_introduced :: is_defined_var;
var bool: X_INTRODUCED_134_ ::var_is_introduced :: is_defined_var;
var bool: X_INTRODUCED_135_ ::var_is_introduced :: is_defined_var;
var bool: X_INTRODUCED_136_ ::var_is_introduced :: is_defined_var;
var bool: X_INTRODUCED_137_ ::var_is_introduced :: is_defined_var;
var bool: X_INTRODUCED_140_ ::var_is_introduced :: is_defined_var;
var bool: X_INTRODUCED_141_ ::var_is_introduced :: is_defined_var;
var bool: X_INTRODUCED_142_ ::var_is_introduced :: is_defined_var;
var bool: X_INTRODUCED_143_ ::var_is_introduced :: is_defined_var;
var bool: X_INTRODUCED_144_ ::var_is_introduced :: is_defined_var;
var bool: X_INTRODUCED_145_ ::var_is_introduced :: is_defined_var;
var bool: X_INTRODUCED_147_ ::var_is_introduced :: is_defined_var;
var bool: X_INTRODUCED_148_ ::var_is_introduced :: is_defined_var;
var bool: X_INTRODUCED_149_ ::var_is_introduced :: is_defined_var;
var bool: X_INTRODUCED_150_ ::var_is_introduced :: is_defined_var;
var bool: X_INTRODUCED_151_ ::var_is_introduced :: is_defined_var;
var bool: X_INTRODUCED_152_ ::var_is_introduced :: is_defined_var;
var bool: X_INTRODUCED_170_ ::var_is_introduced :: is_defined_var;
var bool: X_INTRODUCED_171_ ::var_is_introduced :: is_defined_var;
var bool: X_INTRODUCED_172_ ::var_is_introduced :: is_defined_var;
var bool: X_INTRODUCED_173_ ::var_is_introduced :: is_defined_var;
var bool: X_INTRODUCED_174_ ::var_is_introduced :: is_defined_var;
var bool: X_INTRODUCED_175_ ::var_is_introduced :: is_defined_var;
var bool: X_INTRODUCED_177_ ::var_is_introduced :: is_defined_var;
var bool: X_INTRODUCED_178_ ::var_is_introduced :: is_defined_var;
var bool: X_INTRODUCED_179_ ::var_is_introduced :: is_defined_var;
var bool: X_INTRODUCED_180_ ::var_is_introduced :: is_defined_var;
var bool: X_INTRODUCED_181_ ::var_is_introduced :: is_defined_var;
var bool: X_INTRODUCED_182_ ::var_is_introduced :: is_defined_var;
var bool: X_INTRODUCED_185_ ::var_is_introduced :: is_defined_var;
var bool: X_INTRODUCED_186_ ::var_is_introduced :: is_defined_var;
var bool: X_INTRODUCED_187_ ::var_is_introduced :: is_defined_var;
var bool: X_INTRODUCED_188_ ::var_is_introduced :: is_defined_var;
var bool: X_INTRODUCED_189_ ::var_is_introduced :: is_defined_var;
var bool: X_INTRODUCED_190_ ::var_is_introduced :: is_defined_var;
var bool: X_INTRODUCED_192_ ::var_is_introduced :: is_defined_var;
var bool: X_INTRODUCED_193_ ::var_is_introduced :: is_defined_var;
var bool: X_INTRODUCED_194_ ::var_is_introduced :: is_defined_var;
var bool: X_INTRODUCED_195_ ::var_is_introduced :: is_defined_var;
var bool: X_INTRODUCED_196_ ::var_is_introduced :: is_defined_var;
var bool: X_INTRODUCED_197_ ::var_is_introduced :: is_defined_var;
var bool: X_INTRODUCED_200_ ::var_is_introduced :: is_defined_var;
var bool: X_INTRODUCED_201_ ::var_is_introduced :: is_defined_var;
var bool: X_INTRODUCED_202_ ::var_is_introduced :: is_defined_var;
var bool: X_INTRODUCED_203_ ::var_is_introduced :: is_defined_var;
var bool: X_INTRODUCED_204_ ::var_is_introduced :: is_defined_var;
var bool: X_INTRODUCED_205_ ::var_is_introduced :: is_defined_var;
var bool: X_INTRODUCED_207_ ::var_is_introduced :: is_defined_var;
var bool: X_INTRODUCED_208_ ::var_is_introduced :: is_defined_var;
var bool: X_INTRODUCED_209_ ::var_is_introduced :: is_defined_var;
var bool: X_INTRODUCED_210_ ::var_is_introduced :: is_defined_var;
var bool: X_INTRODUCED_211_ ::var_is_introduced :: is_defined_var;
var bool: X_INTRODUCED_212_ ::var_is_introduced :: is_defined_var;
var bool: X_INTRODUCED_215_ ::var_is_introduced :: is_defined_var;
var bool: X_INTRODUCED_216_ ::var_is_introduced :: is_defined_var;
var bool: X_INTRODUCED_217_ ::var_is_introduced :: is_defined_var;
var bool: X_INTRODUCED_218_ ::var_is_introduced :: is_defined_var;
var bool: X_INTRODUCED_219_ ::var_is_introduced :: is_defined_var;
var bool: X_INTRODUCED_220_ ::var_is_introduced :: is_defined_var;
var bool: X_INTRODUCED_222_ ::var_is_introduced :: is_defined_var;
var bool: X_INTRODUCED_223_ ::var_is_introduced :: is_defined_var;
var bool: X_INTRODUCED_224_ ::var_is_introduced :: is_defined_var;
var bool: X_INTRODUCED_225_ ::var_is_introduced :: is_defined_var;
var bool: X_INTRODUCED_226_ ::var_is_introduced :: is_defined_var;
var bool: X_INTRODUCED_227_ ::var_is_introduced :: is_defined_var;
var bool: X_INTRODUCED_230_ ::var_is_introduced :: is_defined_var;
var bool: X_INTRODUCED_231_ ::var_is_introduced :: is_defined_var;
var bool: X_INTRODUCED_232_ ::var_is_introduced :: is_defined_var;
var bool: X_INTRODUCED_233_ ::var_is_introduced :: is_defined_var;
var bool: X_INTRODUCED_234_ ::var_is_introduced :: is_defined_var;
var bool: X_INTRODUCED_235_ ::var_is_introduced :: is_defined_var;
var bool: X_INTRODUCED_237_ ::var_is_introduced :: is_defined_var;
var bool: X_INTRODUCED_238_ ::var_is_introduced :: is_defined_var;
var bool: X_INTRODUCED_239_ ::var_is_introduced :: is_defined_var;
var bool: X_INTRODUCED_240_ ::var_is_introduced :: is_defined_var;
var bool: X_INTRODUCED_241_ ::var_is_introduced :: is_defined_var;
var bool: X_INTRODUCED_242_ ::var_is_introduced :: is_defined_var;
var bool: X_INTRODUCED_246_ ::var_is_introduced :: is_defined_var;
var bool: X_INTRODUCED_247_ ::var_is_introduced :: is_defined_var;
var bool: X_INTRODUCED_249_ ::var_is_introduced :: is_defined_var;
var bool: X_INTRODUCED_250_ ::var_is_introduced :: is_defined_var;
var bool: X_INTRODUCED_251_ ::var_is_introduced :: is_defined_var;
var bool: X_INTRODUCED_254_ ::var_is_introduced :: is_defined_var;
var bool: X_INTRODUCED_255_ ::var_is_introduced :: is_defined_var;
var bool: X_INTRODUCED_258_ ::var_is_introduced :: is_defined_var;
var bool: X_INTRODUCED_259_ ::var_is_introduced :: is_defined_var;
var bool: X_INTRODUCED_262_ ::var_is_introduced :: is_defined_var;
var bool: X_INTRODUCED_263_ ::var_is_introduced :: is_defined_var;
var bool: X_INTRODUCED_266_ ::var_is_introduced :: is_defined_var;
var bool: X_INTRODUCED_267_ ::var_is_introduced :: is_defined_var;
var bool: X_INTRODUCED_270_ ::var_is_introduced :: is_defined_var;
var bool: X_INTRODUCED_271_ ::var_is_introduced :: is_defined_var;
var bool: X_INTRODUCED_273_ ::var_is_introduced :: is_defined_var;
var bool: X_INTRODUCED_274_ ::var_is_introduced :: is_defined_var;
var bool: X_INTRODUCED_275_ ::var_is_introduced :: is_defined_var;
var bool: X_INTRODUCED_278_ ::var_is_introduced :: is_defined_var;
var bool: X_INTRODUCED_279_ ::var_is_introduced :: is_defined_var;
var bool: X_INTRODUCED_282_ ::var_is_introduced :: is_defined_var;
var bool: X_INTRODUCED_283_ ::var_is_introduced :: is_defined_var;
var bool: X_INTRODUCED_286_ ::var_is_introduced :: is_defined_var;
var bool: X_INTRODUCED_287_ ::var_is_introduced :: is_defined_var;
var bool: X_INTRODUCED_290_ ::var_is_introduced :: is_defined_var;
var bool: X_INTRODUCED_291_ ::var_is_introduced :: is_defined_var;
array [1..7] of var int: TourALoc:: output_array([1..7]) = [1,X_INTRODUCED_1_,X_INTRODUCED_2_,X_INTRODUCED_3_,X_INTRODUCED_4_,X_INTRODUCED_5_,X_INTRODUCED_6_];
array [1..7] of var int: TourBLoc:: output_array([1..7]) = [7,X_INTRODUCED_8_,X_INTRODUCED_9_,X_INTRODUCED_10_,X_INTRODUCED_11_,X_INTRODUCED_12_,X_INTRODUCED_13_];
array [1..14] of var int: X_INTRODUCED_63_ ::var_is_introduced  = [1,X_INTRODUCED_1_,X_INTRODUCED_2_,X_INTRODUCED_3_,X_INTRODUCED_4_,X_INTRODUCED_5_,X_INTRODUCED_6_,7,X_INTRODUCED_8_,X_INTRODUCED_9_,X_INTRODUCED_10_,X_INTRODUCED_11_,X_INTRODUCED_12_,X_INTRODUCED_13_];
array [1..6] of var int: X_INTRODUCED_244_ ::var_is_introduced  = [X_INTRODUCED_1_,X_INTRODUCED_2_,X_INTRODUCED_3_,X_INTRODUCED_4_,X_INTRODUCED_5_,X_INTRODUCED_6_];
array [1..6] of var int: X_INTRODUCED_245_ ::var_is_introduced  = [X_INTRODUCED_8_,X_INTRODUCED_9_,X_INTRODUCED_10_,X_INTRODUCED_11_,X_INTRODUCED_12_,X_INTRODUCED_13_];
constraint int_lin_eq(X_INTRODUCED_30_,[ADist,X_INTRODUCED_33_,X_INTRODUCED_37_,X_INTRODUCED_39_,X_INTRODUCED_41_,X_INTRODUCED_43_,X_INTRODUCED_45_,X_INTRODUCED_47_],0):: defines_var(ADist);
constraint int_lin_eq(X_INTRODUCED_30_,[BDist,X_INTRODUCED_49_,X_INTRODUCED_51_,X_INTRODUCED_53_,X_INTRODUCED_55_,X_INTRODUCED_57_,X_INTRODUCED_59_,X_INTRODUCED_61_],0):: defines_var(BDist);
constraint int_max(ADist,BDist,objective):: defines_var(objective);
constraint array_int_element(X_INTRODUCED_1_,X_INTRODUCED_34_,X_INTRODUCED_33_);
constraint array_int_element(X_INTRODUCED_38_,X_INTRODUCED_34_,X_INTRODUCED_37_);
constraint array_int_element(X_INTRODUCED_40_,X_INTRODUCED_34_,X_INTRODUCED_39_);
constraint array_int_element(X_INTRODUCED_42_,X_INTRODUCED_34_,X_INTRODUCED_41_);
constraint array_int_element(X_INTRODUCED_44_,X_INTRODUCED_34_,X_INTRODUCED_43_);
constraint array_int_element(X_INTRODUCED_46_,X_INTRODUCED_34_,X_INTRODUCED_45_);
constraint array_int_element(X_INTRODUCED_48_,X_INTRODUCED_34_,X_INTRODUCED_47_);
constraint array_int_element(X_INTRODUCED_50_,X_INTRODUCED_34_,X_INTRODUCED_49_);
constraint array_int_element(X_INTRODUCED_52_,X_INTRODUCED_34_,X_INTRODUCED_51_);
constraint array_int_element(X_INTRODUCED_54_,X_INTRODUCED_34_,X_INTRODUCED_53_);
constraint array_int_element(X_INTRODUCED_56_,X_INTRODUCED_34_,X_INTRODUCED_55_);
constraint array_int_element(X_INTRODUCED_58_,X_INTRODUCED_34_,X_INTRODUCED_57_);
constraint array_int_element(X_INTRODUCED_60_,X_INTRODUCED_34_,X_INTRODUCED_59_);
constraint array_int_element(X_INTRODUCED_62_,X_INTRODUCED_34_,X_INTRODUCED_61_);
constraint array_bool_or([X_INTRODUCED_80_,X_INTRODUCED_81_,X_INTRODUCED_82_,X_INTRODUCED_83_,X_INTRODUCED_84_,X_INTRODUCED_85_,X_INTRODUCED_87_,X_INTRODUCED_88_,X_INTRODUCED_89_,X_INTRODUCED_90_,X_INTRODUCED_91_,X_INTRODUCED_92_],true);
constraint array_bool_or([X_INTRODUCED_95_,X_INTRODUCED_96_,X_INTRODUCED_97_,X_INTRODUCED_98_,X_INTRODUCED_99_,X_INTRODUCED_100_,X_INTRODUCED_102_,X_INTRODUCED_103_,X_INTRODUCED_104_,X_INTRODUCED_105_,X_INTRODUCED_106_,X_INTRODUCED_107_],true);
constraint array_bool_or([X_INTRODUCED_110_,X_INTRODUCED_111_,X_INTRODUCED_112_,X_INTRODUCED_113_,X_INTRODUCED_114_,X_INTRODUCED_115_,X_INTRODUCED_117_,X_INTRODUCED_118_,X_INTRODUCED_119_,X_INTRODUCED_120_,X_INTRODUCED_121_,X_INTRODUCED_122_],true);
constraint array_bool_or([X_INTRODUCED_125_,X_INTRODUCED_126_,X_INTRODUCED_127_,X_INTRODUCED_128_,X_INTRODUCED_129_,X_INTRODUCED_130_,X_INTRODUCED_132_,X_INTRODUCED_133_,X_INTRODUCED_134_,X_INTRODUCED_135_,X_INTRODUCED_136_,X_INTRODUCED_137_],true);
constraint array_bool_or([X_INTRODUCED_140_,X_INTRODUCED_141_,X_INTRODUCED_142_,X_INTRODUCED_143_,X_INTRODUCED_144_,X_INTRODUCED_145_,X_INTRODUCED_147_,X_INTRODUCED_148_,X_INTRODUCED_149_,X_INTRODUCED_150_,X_INTRODUCED_151_,X_INTRODUCED_152_],true);
constraint array_bool_or([X_INTRODUCED_170_,X_INTRODUCED_171_,X_INTRODUCED_172_,X_INTRODUCED_173_,X_INTRODUCED_174_,X_INTRODUCED_175_,X_INTRODUCED_177_,X_INTRODUCED_178_,X_INTRODUCED_179_,X_INTRODUCED_180_,X_INTRODUCED_181_,X_INTRODUCED_182_],true);
constraint array_bool_or([X_INTRODUCED_185_,X_INTRODUCED_186_,X_INTRODUCED_187_,X_INTRODUCED_188_,X_INTRODUCED_189_,X_INTRODUCED_190_,X_INTRODUCED_192_,X_INTRODUCED_193_,X_INTRODUCED_194_,X_INTRODUCED_195_,X_INTRODUCED_196_,X_INTRODUCED_197_],true);
constraint array_bool_or([X_INTRODUCED_200_,X_INTRODUCED_201_,X_INTRODUCED_202_,X_INTRODUCED_203_,X_INTRODUCED_204_,X_INTRODUCED_205_,X_INTRODUCED_207_,X_INTRODUCED_208_,X_INTRODUCED_209_,X_INTRODUCED_210_,X_INTRODUCED_211_,X_INTRODUCED_212_],true);
constraint array_bool_or([X_INTRODUCED_215_,X_INTRODUCED_216_,X_INTRODUCED_217_,X_INTRODUCED_218_,X_INTRODUCED_219_,X_INTRODUCED_220_,X_INTRODUCED_222_,X_INTRODUCED_223_,X_INTRODUCED_224_,X_INTRODUCED_225_,X_INTRODUCED_226_,X_INTRODUCED_227_],true);
constraint array_bool_or([X_INTRODUCED_230_,X_INTRODUCED_231_,X_INTRODUCED_232_,X_INTRODUCED_233_,X_INTRODUCED_234_,X_INTRODUCED_235_,X_INTRODUCED_237_,X_INTRODUCED_238_,X_INTRODUCED_239_,X_INTRODUCED_240_,X_INTRODUCED_241_,X_INTRODUCED_242_],true);
constraint minicpp_all_different(X_INTRODUCED_244_);
constraint minicpp_all_different(X_INTRODUCED_245_);
constraint array_bool_or([X_INTRODUCED_246_,X_INTRODUCED_247_,X_INTRODUCED_249_],true);
constraint array_bool_or([X_INTRODUCED_247_,X_INTRODUCED_249_,X_INTRODUCED_250_,X_INTRODUCED_251_],true);
constraint array_bool_or([X_INTRODUCED_247_,X_INTRODUCED_249_,X_INTRODUCED_251_,X_INTRODUCED_254_,X_INTRODUCED_255_],true);
constraint array_bool_or([X_INTRODUCED_247_,X_INTRODUCED_249_,X_INTRODUCED_251_,X_INTRODUCED_255_,X_INTRODUCED_258_,X_INTRODUCED_259_],true);
constraint array_bool_or([X_INTRODUCED_247_,X_INTRODUCED_249_,X_INTRODUCED_251_,X_INTRODUCED_255_,X_INTRODUCED_259_,X_INTRODUCED_262_,X_INTRODUCED_263_],true);
constraint array_bool_or([X_INTRODUCED_247_,X_INTRODUCED_249_,X_INTRODUCED_251_,X_INTRODUCED_255_,X_INTRODUCED_259_,X_INTRODUCED_263_,X_INTRODUCED_266_,X_INTRODUCED_267_],true);
constraint array_bool_or([X_INTRODUCED_270_,X_INTRODUCED_271_,X_INTRODUCED_273_],true);
constraint array_bool_or([X_INTRODUCED_271_,X_INTRODUCED_273_,X_INTRODUCED_274_,X_INTRODUCED_275_],true);
constraint array_bool_or([X_INTRODUCED_271_,X_INTRODUCED_273_,X_INTRODUCED_275_,X_INTRODUCED_278_,X_INTRODUCED_279_],true);
constraint array_bool_or([X_INTRODUCED_271_,X_INTRODUCED_273_,X_INTRODUCED_275_,X_INTRODUCED_279_,X_INTRODUCED_282_,X_INTRODUCED_283_],true);
constraint array_bool_or([X_INTRODUCED_271_,X_INTRODUCED_273_,X_INTRODUCED_275_,X_INTRODUCED_279_,X_INTRODUCED_283_,X_INTRODUCED_286_,X_INTRODUCED_287_],true);
constraint array_bool_or([X_INTRODUCED_271_,X_INTRODUCED_273_,X_INTRODUCED_275_,X_INTRODUCED_279_,X_INTRODUCED_283_,X_INTRODUCED_287_,X_INTRODUCED_290_,X_INTRODUCED_291_],true);
constraint int_lin_eq([1,14,-1],[X_INTRODUCED_2_,X_INTRODUCED_1_,X_INTRODUCED_38_],14):: domain:: defines_var(X_INTRODUCED_38_);
constraint int_lin_eq([1,14,-1],[X_INTRODUCED_3_,X_INTRODUCED_2_,X_INTRODUCED_40_],14):: domain:: defines_var(X_INTRODUCED_40_);
constraint int_lin_eq([1,14,-1],[X_INTRODUCED_4_,X_INTRODUCED_3_,X_INTRODUCED_42_],14):: domain:: defines_var(X_INTRODUCED_42_);
constraint int_lin_eq([1,14,-1],[X_INTRODUCED_5_,X_INTRODUCED_4_,X_INTRODUCED_44_],14):: domain:: defines_var(X_INTRODUCED_44_);
constraint int_lin_eq([1,14,-1],[X_INTRODUCED_6_,X_INTRODUCED_5_,X_INTRODUCED_46_],14):: domain:: defines_var(X_INTRODUCED_46_);
constraint int_lin_eq([14,-1],[X_INTRODUCED_6_,X_INTRODUCED_48_],13):: domain:: defines_var(X_INTRODUCED_48_);
constraint int_lin_eq([1,-1],[X_INTRODUCED_8_,X_INTRODUCED_50_],-84):: domain:: defines_var(X_INTRODUCED_50_);
constraint int_lin_eq([1,14,-1],[X_INTRODUCED_9_,X_INTRODUCED_8_,X_INTRODUCED_52_],14):: domain:: defines_var(X_INTRODUCED_52_);
constraint int_lin_eq([1,14,-1],[X_INTRODUCED_10_,X_INTRODUCED_9_,X_INTRODUCED_54_],14):: domain:: defines_var(X_INTRODUCED_54_);
constraint int_lin_eq([1,14,-1],[X_INTRODUCED_11_,X_INTRODUCED_10_,X_INTRODUCED_56_],14):: domain:: defines_var(X_INTRODUCED_56_);
constraint int_lin_eq([1,14,-1],[X_INTRODUCED_12_,X_INTRODUCED_11_,X_INTRODUCED_58_],14):: domain:: defines_var(X_INTRODUCED_58_);
constraint int_lin_eq([1,14,-1],[X_INTRODUCED_13_,X_INTRODUCED_12_,X_INTRODUCED_60_],14):: domain:: defines_var(X_INTRODUCED_60_);
constraint int_lin_eq([14,-1],[X_INTRODUCED_13_,X_INTRODUCED_62_],7):: domain:: defines_var(X_INTRODUCED_62_);
constraint int_eq_imp(X_INTRODUCED_1_,2,X_INTRODUCED_80_):: defines_var(X_INTRODUCED_80_);
constraint int_eq_imp(X_INTRODUCED_2_,2,X_INTRODUCED_81_):: defines_var(X_INTRODUCED_81_);
constraint int_eq_imp(X_INTRODUCED_3_,2,X_INTRODUCED_82_):: defines_var(X_INTRODUCED_82_);
constraint int_eq_imp(X_INTRODUCED_4_,2,X_INTRODUCED_83_):: defines_var(X_INTRODUCED_83_);
constraint int_eq_imp(X_INTRODUCED_5_,2,X_INTRODUCED_84_):: defines_var(X_INTRODUCED_84_);
constraint int_eq_imp(X_INTRODUCED_6_,2,X_INTRODUCED_85_):: defines_var(X_INTRODUCED_85_);
constraint int_eq_imp(X_INTRODUCED_8_,2,X_INTRODUCED_87_):: defines_var(X_INTRODUCED_87_);
constraint int_eq_imp(X_INTRODUCED_9_,2,X_INTRODUCED_88_):: defines_var(X_INTRODUCED_88_);
constraint int_eq_imp(X_INTRODUCED_10_,2,X_INTRODUCED_89_):: defines_var(X_INTRODUCED_89_);
constraint int_eq_imp(X_INTRODUCED_11_,2,X_INTRODUCED_90_):: defines_var(X_INTRODUCED_90_);
constraint int_eq_imp(X_INTRODUCED_12_,2,X_INTRODUCED_91_):: defines_var(X_INTRODUCED_91_);
constraint int_eq_imp(X_INTRODUCED_13_,2,X_INTRODUCED_92_):: defines_var(X_INTRODUCED_92_);
constraint int_eq_imp(X_INTRODUCED_1_,3,X_INTRODUCED_95_):: defines_var(X_INTRODUCED_95_);
constraint int_eq_imp(X_INTRODUCED_2_,3,X_INTRODUCED_96_):: defines_var(X_INTRODUCED_96_);
constraint int_eq_imp(X_INTRODUCED_3_,3,X_INTRODUCED_97_):: defines_var(X_INTRODUCED_97_);
constraint int_eq_imp(X_INTRODUCED_4_,3,X_INTRODUCED_98_):: defines_var(X_INTRODUCED_98_);
constraint int_eq_imp(X_INTRODUCED_5_,3,X_INTRODUCED_99_):: defines_var(X_INTRODUCED_99_);
constraint int_eq_imp(X_INTRODUCED_6_,3,X_INTRODUCED_100_):: defines_var(X_INTRODUCED_100_);
constraint int_eq_imp(X_INTRODUCED_8_,3,X_INTRODUCED_102_):: defines_var(X_INTRODUCED_102_);
constraint int_eq_imp(X_INTRODUCED_9_,3,X_INTRODUCED_103_):: defines_var(X_INTRODUCED_103_);
constraint int_eq_imp(X_INTRODUCED_10_,3,X_INTRODUCED_104_):: defines_var(X_INTRODUCED_104_);
constraint int_eq_imp(X_INTRODUCED_11_,3,X_INTRODUCED_105_):: defines_var(X_INTRODUCED_105_);
constraint int_eq_imp(X_INTRODUCED_12_,3,X_INTRODUCED_106_):: defines_var(X_INTRODUCED_106_);
constraint int_eq_imp(X_INTRODUCED_13_,3,X_INTRODUCED_107_):: defines_var(X_INTRODUCED_107_);
constraint int_eq_imp(X_INTRODUCED_1_,4,X_INTRODUCED_110_):: defines_var(X_INTRODUCED_110_);
constraint int_eq_imp(X_INTRODUCED_2_,4,X_INTRODUCED_111_):: defines_var(X_INTRODUCED_111_);
constraint int_eq_imp(X_INTRODUCED_3_,4,X_INTRODUCED_112_):: defines_var(X_INTRODUCED_112_);
constraint int_eq_imp(X_INTRODUCED_4_,4,X_INTRODUCED_113_):: defines_var(X_INTRODUCED_113_);
constraint int_eq_imp(X_INTRODUCED_5_,4,X_INTRODUCED_114_):: defines_var(X_INTRODUCED_114_);
constraint int_eq_imp(X_INTRODUCED_6_,4,X_INTRODUCED_115_):: defines_var(X_INTRODUCED_115_);
constraint int_eq_imp(X_INTRODUCED_8_,4,X_INTRODUCED_117_):: defines_var(X_INTRODUCED_117_);
constraint int_eq_imp(X_INTRODUCED_9_,4,X_INTRODUCED_118_):: defines_var(X_INTRODUCED_118_);
constraint int_eq_imp(X_INTRODUCED_10_,4,X_INTRODUCED_119_):: defines_var(X_INTRODUCED_119_);
constraint int_eq_imp(X_INTRODUCED_11_,4,X_INTRODUCED_120_):: defines_var(X_INTRODUCED_120_);
constraint int_eq_imp(X_INTRODUCED_12_,4,X_INTRODUCED_121_):: defines_var(X_INTRODUCED_121_);
constraint int_eq_imp(X_INTRODUCED_13_,4,X_INTRODUCED_122_):: defines_var(X_INTRODUCED_122_);
constraint int_eq_imp(X_INTRODUCED_1_,5,X_INTRODUCED_125_):: defines_var(X_INTRODUCED_125_);
constraint int_eq_imp(X_INTRODUCED_2_,5,X_INTRODUCED_126_):: defines_var(X_INTRODUCED_126_);
constraint int_eq_imp(X_INTRODUCED_3_,5,X_INTRODUCED_127_):: defines_var(X_INTRODUCED_127_);
constraint int_eq_imp(X_INTRODUCED_4_,5,X_INTRODUCED_128_):: defines_var(X_INTRODUCED_128_);
constraint int_eq_imp(X_INTRODUCED_5_,5,X_INTRODUCED_129_):: defines_var(X_INTRODUCED_129_);
constraint int_eq_imp(X_INTRODUCED_6_,5,X_INTRODUCED_130_):: defines_var(X_INTRODUCED_130_);
constraint int_eq_imp(X_INTRODUCED_8_,5,X_INTRODUCED_132_):: defines_var(X_INTRODUCED_132_);
constraint int_eq_imp(X_INTRODUCED_9_,5,X_INTRODUCED_133_):: defines_var(X_INTRODUCED_133_);
constraint int_eq_imp(X_INTRODUCED_10_,5,X_INTRODUCED_134_):: defines_var(X_INTRODUCED_134_);
constraint int_eq_imp(X_INTRODUCED_11_,5,X_INTRODUCED_135_):: defines_var(X_INTRODUCED_135_);
constraint int_eq_imp(X_INTRODUCED_12_,5,X_INTRODUCED_136_):: defines_var(X_INTRODUCED_136_);
constraint int_eq_imp(X_INTRODUCED_13_,5,X_INTRODUCED_137_):: defines_var(X_INTRODUCED_137_);
constraint int_eq_imp(X_INTRODUCED_1_,6,X_INTRODUCED_140_):: defines_var(X_INTRODUCED_140_);
constraint int_eq_imp(X_INTRODUCED_2_,6,X_INTRODUCED_141_):: defines_var(X_INTRODUCED_141_);
constraint int_eq_imp(X_INTRODUCED_3_,6,X_INTRODUCED_142_):: defines_var(X_INTRODUCED_142_);
constraint int_eq_imp(X_INTRODUCED_4_,6,X_INTRODUCED_143_):: defines_var(X_INTRODUCED_143_);
constraint int_eq_imp(X_INTRODUCED_5_,6,X_INTRODUCED_144_):: defines_var(X_INTRODUCED_144_);
constraint int_eq_imp(X_INTRODUCED_6_,6,X_INTRODUCED_145_):: defines_var(X_INTRODUCED_145_);
constraint int_eq_imp(X_INTRODUCED_8_,6,X_INTRODUCED_147_):: defines_var(X_INTRODUCED_147_);
constraint int_eq_imp(X_INTRODUCED_9_,6,X_INTRODUCED_148_):: defines_var(X_INTRODUCED_148_);
constraint int_eq_imp(X_INTRODUCED_10_,6,X_INTRODUCED_149_):: defines_var(X_INTRODUCED_149_);
constraint int_eq_imp(X_INTRODUCED_11_,6,X_INTRODUCED_150_):: defines_var(X_INTRODUCED_150_);
constraint int_eq_imp(X_INTRODUCED_12_,6,X_INTRODUCED_151_):: defines_var(X_INTRODUCED_151_);
constraint int_eq_imp(X_INTRODUCED_13_,6,X_INTRODUCED_152_):: defines_var(X_INTRODUCED_152_);
constraint int_eq_imp(X_INTRODUCED_1_,8,X_INTRODUCED_170_):: defines_var(X_INTRODUCED_170_);
constraint int_eq_imp(X_INTRODUCED_2_,8,X_INTRODUCED_171_):: defines_var(X_INTRODUCED_171_);
constraint int_eq_imp(X_INTRODUCED_3_,8,X_INTRODUCED_172_):: defines_var(X_INTRODUCED_172_);
constraint int_eq_imp(X_INTRODUCED_4_,8,X_INTRODUCED_173_):: defines_var(X_INTRODUCED_173_);
constraint int_eq_imp(X_INTRODUCED_5_,8,X_INTRODUCED_174_):: defines_var(X_INTRODUCED_174_);
constraint int_eq_imp(X_INTRODUCED_6_,8,X_INTRODUCED_175_):: defines_var(X_INTRODUCED_175_);
constraint int_eq_imp(X_INTRODUCED_8_,8,X_INTRODUCED_177_):: defines_var(X_INTRODUCED_177_);
constraint int_eq_imp(X_INTRODUCED_9_,8,X_INTRODUCED_178_):: defines_var(X_INTRODUCED_178_);
constraint int_eq_imp(X_INTRODUCED_10_,8,X_INTRODUCED_179_):: defines_var(X_INTRODUCED_179_);
constraint int_eq_imp(X_INTRODUCED_11_,8,X_INTRODUCED_180_):: defines_var(X_INTRODUCED_180_);
constraint int_eq_imp(X_INTRODUCED_12_,8,X_INTRODUCED_181_):: defines_var(X_INTRODUCED_181_);
constraint int_eq_imp(X_INTRODUCED_13_,8,X_INTRODUCED_182_):: defines_var(X_INTRODUCED_182_);
constraint int_eq_imp(X_INTRODUCED_1_,9,X_INTRODUCED_185_):: defines_var(X_INTRODUCED_185_);
constraint int_eq_imp(X_INTRODUCED_2_,9,X_INTRODUCED_186_):: defines_var(X_INTRODUCED_186_);
constraint int_eq_imp(X_INTRODUCED_3_,9,X_INTRODUCED_187_):: defines_var(X_INTRODUCED_187_);
constraint int_eq_imp(X_INTRODUCED_4_,9,X_INTRODUCED_188_):: defines_var(X_INTRODUCED_188_);
constraint int_eq_imp(X_INTRODUCED_5_,9,X_INTRODUCED_189_):: defines_var(X_INTRODUCED_189_);
constraint int_eq_imp(X_INTRODUCED_6_,9,X_INTRODUCED_190_):: defines_var(X_INTRODUCED_190_);
constraint int_eq_imp(X_INTRODUCED_8_,9,X_INTRODUCED_192_):: defines_var(X_INTRODUCED_192_);
constraint int_eq_imp(X_INTRODUCED_9_,9,X_INTRODUCED_193_):: defines_var(X_INTRODUCED_193_);
constraint int_eq_imp(X_INTRODUCED_10_,9,X_INTRODUCED_194_):: defines_var(X_INTRODUCED_194_);
constraint int_eq_imp(X_INTRODUCED_11_,9,X_INTRODUCED_195_):: defines_var(X_INTRODUCED_195_);
constraint int_eq_imp(X_INTRODUCED_12_,9,X_INTRODUCED_196_):: defines_var(X_INTRODUCED_196_);
constraint int_eq_imp(X_INTRODUCED_13_,9,X_INTRODUCED_197_):: defines_var(X_INTRODUCED_197_);
constraint int_eq_imp(X_INTRODUCED_1_,10,X_INTRODUCED_200_):: defines_var(X_INTRODUCED_200_);
constraint int_eq_imp(X_INTRODUCED_2_,10,X_INTRODUCED_201_):: defines_var(X_INTRODUCED_201_);
constraint int_eq_imp(X_INTRODUCED_3_,10,X_INTRODUCED_202_):: defines_var(X_INTRODUCED_202_);
constraint int_eq_imp(X_INTRODUCED_4_,10,X_INTRODUCED_203_):: defines_var(X_INTRODUCED_203_);
constraint int_eq_imp(X_INTRODUCED_5_,10,X_INTRODUCED_204_):: defines_var(X_INTRODUCED_204_);
constraint int_eq_imp(X_INTRODUCED_6_,10,X_INTRODUCED_205_):: defines_var(X_INTRODUCED_205_);
constraint int_eq_imp(X_INTRODUCED_8_,10,X_INTRODUCED_207_):: defines_var(X_INTRODUCED_207_);
constraint int_eq_imp(X_INTRODUCED_9_,10,X_INTRODUCED_208_):: defines_var(X_INTRODUCED_208_);
constraint int_eq_imp(X_INTRODUCED_10_,10,X_INTRODUCED_209_):: defines_var(X_INTRODUCED_209_);
constraint int_eq_imp(X_INTRODUCED_11_,10,X_INTRODUCED_210_):: defines_var(X_INTRODUCED_210_);
constraint int_eq_imp(X_INTRODUCED_12_,10,X_INTRODUCED_211_):: defines_var(X_INTRODUCED_211_);
constraint int_eq_imp(X_INTRODUCED_13_,10,X_INTRODUCED_212_):: defines_var(X_INTRODUCED_212_);
constraint int_eq_imp(X_INTRODUCED_1_,11,X_INTRODUCED_215_):: defines_var(X_INTRODUCED_215_);
constraint int_eq_imp(X_INTRODUCED_2_,11,X_INTRODUCED_216_):: defines_var(X_INTRODUCED_216_);
constraint int_eq_imp(X_INTRODUCED_3_,11,X_INTRODUCED_217_):: defines_var(X_INTRODUCED_217_);
constraint int_eq_imp(X_INTRODUCED_4_,11,X_INTRODUCED_218_):: defines_var(X_INTRODUCED_218_);
constraint int_eq_imp(X_INTRODUCED_5_,11,X_INTRODUCED_219_):: defines_var(X_INTRODUCED_219_);
constraint int_eq_imp(X_INTRODUCED_6_,11,X_INTRODUCED_220_):: defines_var(X_INTRODUCED_220_);
constraint int_eq_imp(X_INTRODUCED_8_,11,X_INTRODUCED_222_):: defines_var(X_INTRODUCED_222_);
constraint int_eq_imp(X_INTRODUCED_9_,11,X_INTRODUCED_223_):: defines_var(X_INTRODUCED_223_);
constraint int_eq_imp(X_INTRODUCED_10_,11,X_INTRODUCED_224_):: defines_var(X_INTRODUCED_224_);
constraint int_eq_imp(X_INTRODUCED_11_,11,X_INTRODUCED_225_):: defines_var(X_INTRODUCED_225_);
constraint int_eq_imp(X_INTRODUCED_12_,11,X_INTRODUCED_226_):: defines_var(X_INTRODUCED_226_);
constraint int_eq_imp(X_INTRODUCED_13_,11,X_INTRODUCED_227_):: defines_var(X_INTRODUCED_227_);
constraint int_eq_imp(X_INTRODUCED_1_,12,X_INTRODUCED_230_):: defines_var(X_INTRODUCED_230_);
constraint int_eq_imp(X_INTRODUCED_2_,12,X_INTRODUCED_231_):: defines_var(X_INTRODUCED_231_);
constraint int_eq_imp(X_INTRODUCED_3_,12,X_INTRODUCED_232_):: defines_var(X_INTRODUCED_232_);
constraint int_eq_imp(X_INTRODUCED_4_,12,X_INTRODUCED_233_):: defines_var(X_INTRODUCED_233_);
constraint int_eq_imp(X_INTRODUCED_5_,12,X_INTRODUCED_234_):: defines_var(X_INTRODUCED_234_);
constraint int_eq_imp(X_INTRODUCED_6_,12,X_INTRODUCED_235_):: defines_var(X_INTRODUCED_235_);
constraint int_eq_imp(X_INTRODUCED_8_,12,X_INTRODUCED_237_):: defines_var(X_INTRODUCED_237_);
constraint int_eq_imp(X_INTRODUCED_9_,12,X_INTRODUCED_238_):: defines_var(X_INTRODUCED_238_);
constraint int_eq_imp(X_INTRODUCED_10_,12,X_INTRODUCED_239_):: defines_var(X_INTRODUCED_239_);
constraint int_eq_imp(X_INTRODUCED_11_,12,X_INTRODUCED_240_):: defines_var(X_INTRODUCED_240_);
constraint int_eq_imp(X_INTRODUCED_12_,12,X_INTRODUCED_241_):: defines_var(X_INTRODUCED_241_);
constraint int_eq_imp(X_INTRODUCED_13_,12,X_INTRODUCED_242_):: defines_var(X_INTRODUCED_242_);
constraint int_le_imp(X_INTRODUCED_1_,6,X_INTRODUCED_246_):: defines_var(X_INTRODUCED_246_);
constraint int_eq_imp(X_INTRODUCED_1_,Depot,X_INTRODUCED_247_):: defines_var(X_INTRODUCED_247_);
constraint int_eq_imp(1,Depot,X_INTRODUCED_249_):: defines_var(X_INTRODUCED_249_);
constraint int_le_imp(X_INTRODUCED_2_,6,X_INTRODUCED_250_):: defines_var(X_INTRODUCED_250_);
constraint int_eq_imp(X_INTRODUCED_2_,Depot,X_INTRODUCED_251_):: defines_var(X_INTRODUCED_251_);
constraint int_le_imp(X_INTRODUCED_3_,6,X_INTRODUCED_254_):: defines_var(X_INTRODUCED_254_);
constraint int_eq_imp(X_INTRODUCED_3_,Depot,X_INTRODUCED_255_):: defines_var(X_INTRODUCED_255_);
constraint int_le_imp(X_INTRODUCED_4_,6,X_INTRODUCED_258_):: defines_var(X_INTRODUCED_258_);
constraint int_eq_imp(X_INTRODUCED_4_,Depot,X_INTRODUCED_259_):: defines_var(X_INTRODUCED_259_);
constraint int_le_imp(X_INTRODUCED_5_,6,X_INTRODUCED_262_):: defines_var(X_INTRODUCED_262_);
constraint int_eq_imp(X_INTRODUCED_5_,Depot,X_INTRODUCED_263_):: defines_var(X_INTRODUCED_263_);
constraint int_le_imp(X_INTRODUCED_6_,6,X_INTRODUCED_266_):: defines_var(X_INTRODUCED_266_);
constraint int_eq_imp(X_INTRODUCED_6_,Depot,X_INTRODUCED_267_):: defines_var(X_INTRODUCED_267_);
constraint int_le_imp(7,X_INTRODUCED_8_,X_INTRODUCED_270_):: defines_var(X_INTRODUCED_270_);
constraint int_eq_imp(X_INTRODUCED_8_,Depot,X_INTRODUCED_271_):: defines_var(X_INTRODUCED_271_);
constraint int_eq_imp(7,Depot,X_INTRODUCED_273_):: defines_var(X_INTRODUCED_273_);
constraint int_le_imp(7,X_INTRODUCED_9_,X_INTRODUCED_274_):: defines_var(X_INTRODUCED_274_);
constraint int_eq_imp(X_INTRODUCED_9_,Depot,X_INTRODUCED_275_):: defines_var(X_INTRODUCED_275_);
constraint int_le_imp(7,X_INTRODUCED_10_,X_INTRODUCED_278_):: defines_var(X_INTRODUCED_278_);
constraint int_eq_imp(X_INTRODUCED_10_,Depot,X_INTRODUCED_279_):: defines_var(X_INTRODUCED_279_);
constraint int_le_imp(7,X_INTRODUCED_11_,X_INTRODUCED_282_):: defines_var(X_INTRODUCED_282_);
constraint int_eq_imp(X_INTRODUCED_11_,Depot,X_INTRODUCED_283_):: defines_var(X_INTRODUCED_283_);
constraint int_le_imp(7,X_INTRODUCED_12_,X_INTRODUCED_286_):: defines_var(X_INTRODUCED_286_);
constraint int_eq_imp(X_INTRODUCED_12_,Depot,X_INTRODUCED_287_):: defines_var(X_INTRODUCED_287_);
constraint int_le_imp(7,X_INTRODUCED_13_,X_INTRODUCED_290_):: defines_var(X_INTRODUCED_290_);
constraint int_eq_imp(X_INTRODUCED_13_,Depot,X_INTRODUCED_291_):: defines_var(X_INTRODUCED_291_);
solve :: seq_search([int_search(X_INTRODUCED_63_,first_fail,indomain_min,complete),int_search([Depot],input_order,indomain_min,complete)]) minimize objective;
